p cnf 777 2165
c max 1 2 3 4 5 6 7 8 9 10 11 12 13 14 15 16 17 18 19 20 21 22 23 24 25 26 27 28 29 30 31 32 0
c ind 33 34 35 36 37 38 39 40 41 42 43 44 45 46 47 48 49 50 51 52 53 54 55 56 57 58 59 60 61 62 63 64 65 66 67 68 69 70 71 72 73 74 75 76 77 78 79 80 81 82 83 84 85 86 87 88 89 90 91 92 93 94 95 96 97 98 99 100 101 102 103 104 105 106 107 108 109 110 111 112 113 114 115 116 117 118 119 120 121 122 123 124 125 126 127 128 129 130 131 132 133 134 135 136 137 138 139 140 141 142 143 144 145 146 147 148 149 150 151 152 153 154 155 156 157 158 159 160 161 162 163 164 165 166 167 168 169 170 171 172 173 174 175 176 177 178 179 180 181 182 183 184 185 186 187 188 189 190 191 192 193 194 195 196 197 198 199 200 201 202 203 204 205 206 207 208 209 210 211 212 213 214 215 216 217 218 219 220 221 222 223 224 225 226 227 228 229 230 231 232 233 234 235 236 237 238 239 240 241 242 243 244 245 246 247 248 249 250 251 252 253 254 255 256 257 258 259 260 261 262 263 264 265 266 267 268 269 270 271 272 273 274 275 276 277 278 279 280 281 282 283 284 285 286 287 288 289 290 291 292 293 294 295 296 297 298 299 300 301 302 303 304 305 306 307 308 309 310 311 312 313 314 315 316 317 318 319 320 321 322 323 324 325 326 327 328 329 330 331 332 333 334 335 336 337 338 339 340 341 342 343 344 345 346 347 348 349 350 351 352 353 354 355 356 357 358 359 360 361 362 363 364 365 366 367 368 369 370 371 372 373 374 375 376 377 378 379 380 381 382 383 384 385 386 387 388 389 390 391 392 393 394 395 396 397 398 399 400 401 402 403 404 405 406 407 408 409 410 411 412 413 414 415 416 417 418 419 420 421 422 423 424 425 426 427 428 429 430 431 432 433 434 435 436 437 438 439 440 441 442 443 444 445 446 447 448 449 450 451 452 453 454 455 456 457 458 459 460 461 462 463 464 465 466 467 468 469 470 471 472 473 474 475 476 477 478 479 480 481 482 483 484 485 486 487 488 489 490 491 492 493 494 495 496 497 498 499 500 501 502 503 504 505 506 507 508 509 510 511 512 513 514 515 516 517 518 519 520 521 522 523 524 525 526 527 528 529 530 531 532 533 534 535 536 537 538 539 540 541 542 543 544 545 546 547 548 549 550 551 552 553 554 555 556 557 558 559 560 561 562 563 564 565 566 567 568 569 570 571 572 573 574 575 576 577 578 579 580 581 582 583 584 585 586 587 588 589 590 591 592 593 594 595 596 597 598 599 600 601 602 603 604 605 606 607 608 609 610 611 612 613 614 615 616 617 618 619 620 621 622 623 624 625 626 627 628 629 630 631 632 633 634 635 636 637 638 639 640 641 642 643 644 645 646 647 648 649 650 651 652 653 654 655 656 657 658 659 660 661 662 663 664 665 666 667 668 669 670 671 672 673 674 675 676 677 678 679 680 681 682 683 684 685 686 687 688 689 690 691 692 693 694 695 696 697 698 699 700 701 702 703 704 705 706 707 708 709 710 711 712 713 714 715 716 717 718 719 720 721 722 723 724 725 726 727 728 729 730 731 732 733 734 735 736 737 738 739 740 741 742 743 744 745 746 747 748 749 750 751 752 753 754 755 756 757 758 759 760 761 762 763 764 765 766 767 768 769 770 771 772 773 774 775 776 777 0
33 1 0
-33 -1 0
34 2 0
-34 -2 0
35 3 0
-35 -3 0
36 4 0
-36 -4 0
37 5 0
-37 -5 0
38 37 0
-38 -37 0
39 5 0
-39 -5 0
40 6 0
-40 -6 0
41 7 0
-41 -7 0
42 8 0
-42 -8 0
43 9 0
-43 -9 0
44 10 0
-44 -10 0
45 11 0
-45 -11 0
46 12 0
-46 -12 0
47 13 0
-47 -13 0
48 14 0
-48 -14 0
49 16 0
-49 -16 0
50 16 0
-50 -16 0
51 26 0
-51 -26 0
52 19 0
-52 -19 0
53 27 0
-53 -27 0
54 28 0
-54 -28 0
55 29 0
-55 -29 0
56 30 0
-56 -30 0
57 15 0
-57 -15 0
58 36 0
-58 -36 0
59 40 0
-59 -40 0
60 59 0
-60 -59 0
61 41 0
-61 -41 0
62 45 0
-62 -45 0
63 62 0
-63 -62 0
64 35 0
-64 -35 0
65 10 0
-65 -10 0
66 2 0
-66 -2 0
67 66 0
-67 -66 0
68 33 0
-68 -33 0
69 68 0
-69 -68 0
70 69 0
-70 -69 0
-71 17 0
-71 7 0
71 -17 -7 0
-72 42 0
-72 41 0
72 -42 -41 0
-73 56 0
-73 36 0
73 -56 -36 0
-74 2 0
-74 33 0
74 -2 -33 0
-75 70 0
-75 5 0
75 -70 -5 0
76 -6 0
76 -4 0
-76 6 4 0
77 -16 0
77 -7 0
-77 16 7 0
78 -40 0
78 -2 0
-78 40 2 0
79 -41 0
79 -5 0
-79 41 5 0
80 -17 0
80 -43 0
-80 17 43 0
81 -44 0
81 -42 0
-81 44 42 0
82 -44 0
82 -7 0
-82 44 7 0
83 -44 0
83 -43 0
-83 44 43 0
84 -45 0
84 -44 0
-84 45 44 0
85 -46 0
85 -10 0
-85 46 10 0
86 -46 0
86 -8 0
-86 46 8 0
87 -46 0
87 -11 0
-87 46 11 0
88 -49 0
88 -7 0
-88 49 7 0
562 -58 0
562 -3 0
-562 58 3 0
89 -562 0
89 -34 0
-89 562 34 0
90 3 0
90 1 0
-90 -3 -1 0
91 4 0
91 2 0
-91 -4 -2 0
92 4 0
92 1 0
-92 -4 -1 0
93 5 0
93 4 0
-93 -5 -4 0
94 5 0
94 3 0
-94 -5 -3 0
95 5 0
95 2 0
-95 -5 -2 0
96 6 0
96 3 0
-96 -6 -3 0
97 6 0
97 4 0
-97 -6 -4 0
98 7 0
98 5 0
-98 -7 -5 0
99 10 0
99 7 0
-99 -10 -7 0
100 11 0
100 9 0
-100 -11 -9 0
101 11 0
101 8 0
-101 -11 -8 0
102 12 0
102 10 0
-102 -12 -10 0
103 17 0
103 9 0
-103 -17 -9 0
104 20 0
104 9 0
-104 -20 -9 0
105 4 0
105 35 0
-105 -4 -35 0
106 36 0
106 3 0
-106 -36 -3 0
107 6 0
107 39 0
-107 -6 -39 0
108 97 0
108 5 0
-108 -97 -5 0
109 40 0
109 5 0
-109 -40 -5 0
-564 16 0
-564 8 0
564 -16 -8 0
-563 564 0
-563 41 0
563 -564 -41 0
110 563 0
-110 -563 0
111 41 0
111 39 0
-111 -41 -39 0
112 22 0
112 41 0
-112 -22 -41 0
113 9 0
113 42 0
-113 -9 -42 0
114 11 0
114 43 0
-114 -11 -43 0
115 43 0
115 8 0
-115 -43 -8 0
116 44 0
116 7 0
-116 -44 -7 0
117 100 0
117 8 0
-117 -100 -8 0
118 45 0
118 10 0
-118 -45 -10 0
119 18 0
119 48 0
-119 -18 -48 0
-566 52 0
-566 48 0
566 -52 -48 0
-565 566 0
-565 4 0
565 -566 -4 0
120 565 0
-120 -565 0
121 57 0
121 1 0
-121 -57 -1 0
122 93 0
122 107 0
-122 -93 -107 0
-568 108 0
-568 106 0
568 -108 -106 0
-567 568 0
-567 105 0
567 -568 -105 0
123 567 0
-123 -567 0
124 40 0
124 79 0
-124 -40 -79 0
125 80 0
125 114 0
-125 -80 -114 0
126 116 0
126 82 0
-126 -116 -82 0
127 45 0
127 85 0
-127 -45 -85 0
128 87 0
128 84 0
-128 -87 -84 0
129 67 0
129 38 0
-129 -67 -38 0
-130 -5 0
-130 -1 0
130 5 1 0
-131 -6 0
-131 -5 0
131 6 5 0
-132 -8 0
-132 -6 0
132 8 6 0
-133 -9 0
-133 -8 0
133 9 8 0
-134 -12 0
-134 -8 0
134 12 8 0
-135 -12 0
-135 -11 0
135 12 11 0
-136 -4 0
-136 -33 0
136 4 33 0
-137 -5 0
-137 -34 0
137 5 34 0
-138 -35 0
-138 -2 0
138 35 2 0
-139 -36 0
-139 -2 0
139 36 2 0
-140 -97 0
-140 -34 0
140 97 34 0
-141 -98 0
-141 -35 0
141 98 35 0
-142 -98 0
-142 -40 0
142 98 40 0
-143 -11 0
-143 -42 0
143 11 42 0
-144 -101 0
-144 -7 0
144 101 7 0
-145 -48 0
-145 -13 0
145 48 13 0
-146 -105 0
-146 -41 0
146 105 41 0
-147 -111 0
-147 -6 0
147 111 6 0
148 96 0
-148 -96 0
-149 4 0
-149 130 0
149 -4 -130 0
150 97 0
-150 -97 0
151 102 0
-151 -102 0
-152 109 0
-152 107 0
152 -109 -107 0
-153 108 0
-153 78 0
153 -108 -78 0
-569 143 0
-569 23 0
569 -143 -23 0
-570 569 0
-570 150 0
570 -569 -150 0
-154 570 0
-154 9 0
154 -570 -9 0
-155 143 0
-155 130 0
155 -143 -130 0
-156 144 0
-156 10 0
156 -144 -10 0
-571 118 0
-571 8 0
571 -118 -8 0
-157 571 0
-157 41 0
157 -571 -41 0
-158 151 0
-158 43 0
158 -151 -43 0
-572 151 0
-572 101 0
572 -151 -101 0
-159 572 0
-159 7 0
159 -572 -7 0
-160 146 0
-160 109 0
160 -146 -109 0
-161 146 0
-161 2 0
161 -146 -2 0
162 134 0
-162 -134 0
-163 138 0
-163 122 0
163 -138 -122 0
-164 123 0
-164 7 0
164 -123 -7 0
-573 134 0
-573 10 0
573 -134 -10 0
-165 573 0
-165 125 0
165 -573 -125 0
-166 129 0
-166 3 0
166 -129 -3 0
167 135 0
-167 -135 0
168 91 0
-168 -91 0
169 77 0
-169 -77 0
170 -91 0
170 -6 0
-170 91 6 0
171 -94 0
171 -7 0
-171 94 7 0
172 -90 0
172 -39 0
-172 90 39 0
173 -97 0
173 -5 0
-173 97 5 0
174 105 0
-174 -105 0
175 139 0
-175 -139 0
176 175 0
-176 -175 0
177 -99 0
177 -12 0
-177 99 12 0
178 106 0
-178 -106 0
179 178 0
-179 -178 0
180 -100 0
180 -8 0
-180 100 8 0
181 -100 0
181 -41 0
-181 100 41 0
182 -101 0
182 -10 0
-182 101 10 0
183 150 0
-183 -150 0
184 183 0
-184 -183 0
185 140 0
-185 -140 0
186 109 0
-186 -109 0
187 -168 0
187 -35 0
-187 168 35 0
188 136 0
-188 -136 0
189 -150 0
189 -35 0
-189 150 35 0
190 -109 0
190 -41 0
-190 109 41 0
191 -50 0
191 -113 0
-191 50 113 0
574 -114 0
574 -44 0
-574 114 44 0
192 -574 0
192 -8 0
-192 574 8 0
193 -117 0
193 -102 0
-193 117 102 0
194 -151 0
194 -45 0
-194 151 45 0
195 -109 0
195 -105 0
-195 109 105 0
196 -41 0
196 -152 0
-196 41 152 0
197 -153 0
197 -35 0
-197 153 35 0
198 -184 0
198 -166 0
-198 184 166 0
199 188 0
-199 -188 0
200 111 0
-200 -111 0
201 113 0
-201 -113 0
202 114 0
-202 -114 0
203 80 0
-203 -80 0
204 115 0
-204 -115 0
205 204 0
-205 -204 0
206 116 0
-206 -116 0
207 150 0
-207 -150 0
208 207 0
-208 -207 0
209 118 0
-209 -118 0
210 90 0
-210 -90 0
211 145 0
-211 -145 0
212 120 0
-212 -120 0
213 120 0
-213 -120 0
214 109 0
-214 -109 0
215 214 0
-215 -214 0
-576 131 0
-576 21 0
576 -131 -21 0
-577 576 0
-577 12 0
577 -576 -12 0
-575 577 0
-575 4 0
575 -577 -4 0
216 575 0
-216 -575 0
217 146 0
-217 -146 0
218 98 0
-218 -98 0
219 95 0
-219 -95 0
220 100 0
-220 -100 0
221 101 0
-221 -101 0
222 200 0
-222 -200 0
223 222 0
-223 -222 0
224 124 0
-224 -124 0
225 209 0
-225 -209 0
226 168 0
226 39 0
-226 -168 -39 0
227 219 0
227 33 0
-227 -219 -33 0
228 150 0
228 35 0
-228 -150 -35 0
229 101 0
-229 -101 0
230 4 0
230 218 0
-230 -4 -218 0
231 218 0
231 36 0
-231 -218 -36 0
232 143 0
232 44 0
-232 -143 -44 0
233 220 0
233 81 0
-233 -220 -81 0
234 117 0
234 180 0
-234 -117 -180 0
235 115 0
235 181 0
-235 -115 -181 0
-579 20 0
-579 229 0
579 -20 -229 0
-578 579 0
-578 83 0
578 -579 -83 0
236 578 0
-236 -578 0
237 9 0
237 151 0
-237 -9 -151 0
-581 142 0
-581 151 0
581 -142 -151 0
-580 581 0
-580 11 0
580 -581 -11 0
238 580 0
-238 -580 0
239 88 0
239 177 0
-239 -88 -177 0
240 60 0
240 179 0
-240 -60 -179 0
-583 228 0
-583 187 0
583 -228 -187 0
-582 583 0
-582 76 0
582 -583 -76 0
241 582 0
-241 -582 0
242 228 0
242 189 0
-242 -228 -189 0
243 186 0
243 3 0
-243 -186 -3 0
-585 153 0
-585 173 0
585 -153 -173 0
-584 585 0
-584 170 0
584 -585 -170 0
244 584 0
-244 -584 0
245 135 0
245 147 0
-245 -135 -147 0
246 138 0
246 124 0
-246 -138 -124 0
247 202 0
247 151 0
-247 -202 -151 0
248 63 0
248 205 0
-248 -63 -205 0
249 209 0
249 8 0
-249 -209 -8 0
250 133 0
250 65 0
-250 -133 -65 0
251 86 0
251 194 0
-251 -86 -194 0
252 240 0
252 39 0
-252 -240 -39 0
253 241 0
253 5 0
-253 -241 -5 0
254 231 0
254 196 0
-254 -231 -196 0
255 36 0
255 197 0
-255 -36 -197 0
256 238 0
256 245 0
-256 -238 -245 0
257 248 0
257 44 0
-257 -248 -44 0
-587 253 0
-587 226 0
587 -253 -226 0
-586 587 0
-586 89 0
586 -587 -89 0
258 586 0
-258 -586 0
-259 -162 0
-259 -9 0
259 162 9 0
-260 -167 0
-260 -10 0
260 167 10 0
589 -230 0
589 -46 0
-589 230 46 0
588 -589 0
588 -6 0
-588 589 6 0
261 588 0
-261 -588 0
-262 -232 0
-262 -46 0
262 232 46 0
-263 -237 0
-263 -11 0
263 237 11 0
264 219 0
-264 -219 0
-265 218 0
-265 96 0
265 -218 -96 0
266 264 0
-266 -264 0
267 -210 0
267 -34 0
-267 210 34 0
-268 45 0
-268 169 0
268 -45 -169 0
-269 109 0
-269 174 0
269 -109 -174 0
270 -219 0
270 -92 0
-270 219 92 0
271 -218 0
271 -36 0
-271 218 36 0
272 -218 0
272 -40 0
-272 218 40 0
273 -44 0
273 -220 0
-273 44 220 0
-274 186 0
-274 36 0
274 -186 -36 0
275 -226 0
275 -41 0
-275 226 41 0
276 -227 0
276 -36 0
-276 227 36 0
-277 231 0
-277 105 0
277 -231 -105 0
-590 139 0
-590 200 0
590 -139 -200 0
-278 590 0
-278 43 0
278 -590 -43 0
591 -232 0
591 -9 0
-591 232 9 0
279 -591 0
279 -7 0
-279 591 7 0
280 -232 0
280 -43 0
-280 232 43 0
281 -209 0
281 -113 0
-281 209 113 0
282 -217 0
282 -6 0
-282 217 6 0
283 -40 0
283 -277 0
-283 40 277 0
284 -224 0
284 -105 0
-284 224 105 0
285 -255 0
285 -186 0
-285 255 186 0
-592 206 0
-592 202 0
592 -206 -202 0
-593 592 0
-593 132 0
593 -592 -132 0
-286 593 0
-286 36 0
286 -593 -36 0
594 -199 0
594 -176 0
-594 199 176 0
287 -594 0
287 -75 0
-287 594 75 0
-288 206 0
-288 24 0
288 -206 -24 0
-595 20 0
-595 234 0
595 -20 -234 0
-289 595 0
-289 10 0
289 -595 -10 0
-290 235 0
-290 44 0
290 -235 -44 0
-291 209 0
-291 201 0
291 -209 -201 0
-292 209 0
-292 113 0
292 -209 -113 0
-596 103 0
-596 110 0
596 -103 -110 0
-293 596 0
-293 260 0
293 -596 -260 0
-294 128 0
-294 201 0
294 -128 -201 0
-295 239 0
-295 8 0
295 -239 -8 0
-296 244 0
-296 1 0
296 -244 -1 0
297 221 0
-297 -221 0
298 297 0
-298 -297 0
-299 142 0
-299 262 0
299 -142 -262 0
-300 232 0
-300 225 0
300 -232 -225 0
-301 263 0
-301 7 0
301 -263 -7 0
-302 254 0
-302 3 0
302 -254 -3 0
-303 133 0
-303 256 0
303 -133 -256 0
-597 257 0
-597 247 0
597 -257 -247 0
-304 597 0
-304 233 0
304 -597 -233 0
305 230 0
-305 -230 0
306 232 0
-306 -232 0
307 233 0
-307 -233 0
308 237 0
-308 -237 0
309 243 0
-309 -243 0
310 246 0
-310 -246 0
311 247 0
-311 -247 0
312 255 0
-312 -255 0
-313 198 0
-313 7 0
313 -198 -7 0
-598 287 0
-598 153 0
598 -287 -153 0
-314 598 0
-314 3 0
314 -598 -3 0
315 172 0
315 267 0
-315 -172 -267 0
-600 41 0
-600 3 0
600 -41 -3 0
-599 600 0
-599 266 0
599 -600 -266 0
316 599 0
-316 -599 0
317 111 0
317 271 0
-317 -111 -271 0
-602 272 0
-602 190 0
602 -272 -190 0
-601 602 0
-601 171 0
601 -602 -171 0
318 601 0
-318 -601 0
-604 203 0
-604 110 0
604 -203 -110 0
-603 604 0
-603 273 0
603 -604 -273 0
319 603 0
-319 -603 0
320 259 0
320 209 0
-320 -259 -209 0
321 259 0
321 45 0
-321 -259 -45 0
-606 260 0
-606 41 0
606 -260 -41 0
-605 606 0
-605 40 0
605 -606 -40 0
322 605 0
-322 -605 0
323 315 0
323 36 0
-323 -315 -36 0
324 121 0
324 276 0
-324 -121 -276 0
325 305 0
325 34 0
-325 -305 -34 0
326 280 0
326 192 0
-326 -280 -192 0
327 281 0
327 182 0
-327 -281 -182 0
-608 250 0
-608 77 0
608 -250 -77 0
-607 608 0
-607 319 0
607 -608 -319 0
328 607 0
-328 -607 0
329 229 0
329 308 0
-329 -229 -308 0
330 238 0
330 322 0
-330 -238 -322 0
-610 227 0
-610 323 0
610 -227 -323 0
-609 610 0
-609 270 0
609 -610 -270 0
331 609 0
-331 -609 0
-612 231 0
-612 215 0
612 -231 -215 0
-611 612 0
-611 282 0
611 -612 -282 0
332 611 0
-332 -611 0
333 325 0
333 275 0
-333 -325 -275 0
-614 252 0
-614 243 0
614 -252 -243 0
-613 614 0
-613 283 0
613 -614 -283 0
334 613 0
-334 -613 0
-616 142 0
-616 326 0
616 -142 -326 0
-615 616 0
-615 12 0
615 -616 -12 0
335 615 0
-335 -615 0
336 327 0
336 12 0
-336 -327 -12 0
337 320 0
337 329 0
-337 -320 -329 0
-618 1 0
-618 285 0
618 -1 -285 0
-617 618 0
-617 195 0
617 -618 -195 0
338 617 0
-338 -617 0
339 336 0
339 193 0
-339 -336 -193 0
340 300 0
-340 -300 0
341 329 0
-341 -329 0
342 312 0
-342 -312 0
343 342 0
-343 -342 0
344 343 0
-344 -343 0
345 344 0
-345 -344 0
-346 -163 0
-346 -269 0
346 163 269 0
-347 -320 0
-347 -40 0
347 320 40 0
348 -326 0
348 -291 0
-348 326 291 0
349 -302 0
349 -160 0
-349 302 160 0
350 -313 0
350 -265 0
-350 313 265 0
-351 317 0
-351 6 0
351 -317 -6 0
-352 168 0
-352 318 0
352 -168 -318 0
-353 306 0
-353 61 0
353 -306 -61 0
-354 307 0
-354 20 0
354 -307 -20 0
-619 144 0
-619 186 0
619 -144 -186 0
-355 619 0
-355 308 0
355 -619 -308 0
-356 310 0
-356 4 0
356 -310 -4 0
-357 328 0
-357 12 0
357 -328 -12 0
-358 321 0
-358 329 0
358 -321 -329 0
-359 133 0
-359 330 0
359 -133 -330 0
-360 311 0
-360 333 0
360 -311 -333 0
-361 333 0
-361 9 0
361 -333 -9 0
-620 261 0
-620 348 0
620 -261 -348 0
-362 620 0
-362 35 0
362 -620 -35 0
-363 335 0
-363 112 0
363 -335 -112 0
-364 261 0
-364 340 0
364 -261 -340 0
-621 140 0
-621 141 0
621 -140 -141 0
-365 621 0
-365 337 0
365 -621 -337 0
-366 147 0
-366 341 0
366 -147 -341 0
367 325 0
-367 -325 0
368 326 0
-368 -326 0
-369 338 0
-369 34 0
369 -338 -34 0
-370 20 0
-370 339 0
370 -20 -339 0
-371 345 0
-371 40 0
371 -345 -40 0
372 326 0
-372 -326 0
373 -96 0
373 -305 0
-373 96 305 0
374 347 0
374 305 0
-374 -347 -305 0
375 -154 0
375 -286 0
-375 154 286 0
376 -298 0
376 -288 0
-376 298 288 0
-623 341 0
-623 218 0
623 -341 -218 0
-622 623 0
-622 150 0
622 -623 -150 0
377 622 0
-377 -622 0
-625 374 0
-625 216 0
625 -374 -216 0
-624 625 0
-624 377 0
624 -625 -377 0
378 624 0
-378 -624 0
379 -290 0
379 -157 0
-379 290 157 0
380 -101 0
380 -308 0
-380 101 308 0
381 347 0
-381 -347 0
382 381 0
-382 -381 0
626 -292 0
626 -294 0
-626 292 294 0
383 -626 0
383 -158 0
-383 626 158 0
384 -71 0
384 -295 0
-384 71 295 0
385 372 0
-385 -372 0
386 -296 0
386 -74 0
-386 296 74 0
387 385 0
-387 -385 0
388 385 0
-388 -385 0
389 377 0
-389 -377 0
627 -351 0
627 -164 0
-627 351 164 0
390 -627 0
390 -274 0
-390 627 274 0
391 -223 0
391 -299 0
-391 223 299 0
629 -356 0
629 -352 0
-629 356 352 0
628 -629 0
628 -161 0
-628 629 161 0
392 628 0
-392 -628 0
-393 -6 0
-393 -358 0
393 6 358 0
-394 -4 0
-394 -363 0
394 4 363 0
-395 -359 0
-395 -366 0
395 359 366 0
631 -369 0
631 -268 0
-631 369 268 0
632 -631 0
632 -72 0
-632 631 72 0
630 -632 0
630 -314 0
-630 632 314 0
396 630 0
-396 -630 0
-397 -387 0
-397 -5 0
397 387 5 0
-398 -388 0
-398 -230 0
398 388 230 0
399 397 0
-399 -397 0
400 -208 0
400 -353 0
-400 208 353 0
401 399 0
-401 -399 0
402 -303 0
402 -355 0
-402 303 355 0
403 -368 0
403 -41 0
-403 368 41 0
404 398 0
-404 -398 0
405 404 0
-405 -404 0
-633 130 0
-633 375 0
633 -130 -375 0
-406 633 0
-406 12 0
406 -633 -12 0
-407 379 0
-407 12 0
407 -379 -12 0
408 -361 0
408 -278 0
-408 361 278 0
409 -73 0
409 -364 0
-409 73 364 0
-410 383 0
-410 7 0
410 -383 -7 0
-411 384 0
-411 9 0
411 -384 -9 0
-412 367 0
-412 263 0
412 -367 -263 0
413 -371 0
413 -149 0
-413 371 149 0
414 -382 0
414 -401 0
-414 382 401 0
-415 262 0
-415 408 0
415 -262 -408 0
-416 394 0
-416 35 0
416 -394 -35 0
-417 378 0
-417 3 0
417 -378 -3 0
-418 389 0
-418 1 0
418 -389 -1 0
-419 109 0
-419 413 0
419 -109 -413 0
-635 243 0
-635 284 0
635 -243 -284 0
-634 635 0
-634 373 0
634 -635 -373 0
420 634 0
-420 -634 0
-637 249 0
-637 380 0
637 -249 -380 0
-636 637 0
-636 191 0
636 -637 -191 0
421 636 0
-421 -636 0
422 390 0
422 2 0
-422 -390 -2 0
423 18 0
423 421 0
-423 -18 -421 0
-639 246 0
-639 316 0
639 -246 -316 0
-638 639 0
-638 422 0
638 -639 -422 0
424 638 0
-424 -638 0
425 403 0
425 279 0
-425 -403 -279 0
426 424 0
426 14 0
-426 -424 -14 0
427 421 0
427 424 0
-427 -421 -424 0
428 421 0
-428 -421 0
429 402 0
-429 -402 0
430 429 0
-430 -429 0
431 423 0
-431 -423 0
432 427 0
-432 -427 0
-433 -407 0
-433 -159 0
433 407 159 0
-434 -301 0
-434 -411 0
434 301 411 0
-435 -423 0
-435 -13 0
435 423 13 0
-436 -431 0
-436 -14 0
436 431 14 0
-437 -427 0
-437 -34 0
437 427 34 0
-438 -95 0
-438 -427 0
438 95 427 0
-439 -211 0
-439 -432 0
439 211 432 0
641 -419 0
641 -357 0
-641 419 357 0
642 -641 0
642 -165 0
-642 641 165 0
640 -642 0
640 -293 0
-640 642 293 0
440 640 0
-440 -640 0
441 -405 0
441 -430 0
-441 405 430 0
442 438 0
-442 -438 0
443 -412 0
443 -360 0
-443 412 360 0
-444 435 0
-444 309 0
444 -435 -309 0
-445 119 0
-445 426 0
445 -119 -426 0
-446 437 0
-446 332 0
446 -437 -332 0
-643 437 0
-643 145 0
643 -437 -145 0
-447 643 0
-447 334 0
447 -643 -334 0
-644 145 0
-644 350 0
644 -145 -350 0
-448 644 0
-448 432 0
448 -644 -432 0
-645 55 0
-645 432 0
645 -55 -432 0
-449 645 0
-449 14 0
449 -645 -14 0
450 -410 0
450 -156 0
-450 410 156 0
451 440 0
451 32 0
-451 -440 -32 0
452 435 0
-452 -435 0
646 -427 0
646 -219 0
-646 427 219 0
453 -646 0
453 -40 0
-453 646 40 0
647 -427 0
647 -94 0
-647 427 94 0
454 -647 0
454 -2 0
-454 647 2 0
648 -416 0
648 -417 0
-648 416 417 0
455 -648 0
455 -362 0
-455 648 362 0
-456 -452 0
-456 -14 0
456 452 14 0
650 -428 0
650 -13 0
-650 428 13 0
649 -650 0
649 -445 0
-649 650 445 0
457 649 0
-457 -649 0
458 -418 0
458 -406 0
-458 418 406 0
459 438 0
-459 -438 0
-460 -451 0
-460 -47 0
460 451 47 0
461 -442 0
461 -105 0
-461 442 105 0
462 460 0
-462 -460 0
-651 456 0
-651 150 0
651 -456 -150 0
-463 651 0
-463 94 0
463 -651 -94 0
-652 456 0
-652 25 0
652 -456 -25 0
-464 652 0
-464 5 0
464 -652 -5 0
-465 456 0
-465 349 0
465 -456 -349 0
-653 456 0
-653 148 0
653 -456 -148 0
-466 653 0
-466 93 0
466 -653 -93 0
467 455 0
-467 -455 0
-468 443 0
-468 42 0
468 -443 -42 0
469 436 0
469 455 0
-469 -436 -455 0
-655 458 0
-655 3 0
655 -458 -3 0
-654 655 0
-654 2 0
654 -655 -2 0
470 654 0
-470 -654 0
471 461 0
471 454 0
-471 -461 -454 0
472 469 0
-472 -469 0
473 -415 0
473 -468 0
-473 415 468 0
-656 436 0
-656 467 0
656 -436 -467 0
-474 656 0
-474 47 0
474 -656 -47 0
-475 472 0
-475 305 0
475 -472 -305 0
-657 472 0
-657 391 0
657 -472 -391 0
-476 657 0
-476 36 0
476 -657 -36 0
477 470 0
-477 -470 0
478 472 0
-478 -472 0
479 451 0
-479 -451 0
-658 460 0
-658 137 0
658 -460 -137 0
-480 658 0
-480 1 0
480 -658 -1 0
481 -459 0
481 -6 0
-481 459 6 0
-482 -478 0
-482 -13 0
482 478 13 0
660 -479 0
660 -14 0
-660 479 14 0
659 -660 0
659 -47 0
-659 660 47 0
483 659 0
-483 -659 0
-484 -444 0
-484 -480 0
484 444 480 0
-485 -462 0
-485 -14 0
485 462 14 0
-661 473 0
-661 40 0
661 -473 -40 0
-486 661 0
-486 3 0
486 -661 -3 0
487 469 0
-487 -469 0
-488 482 0
-488 409 0
488 -482 -409 0
-489 485 0
-489 324 0
489 -485 -324 0
-490 483 0
-490 470 0
490 -483 -470 0
491 481 0
491 453 0
-491 -481 -453 0
492 -469 0
492 -13 0
-492 469 13 0
493 483 0
493 477 0
-493 -483 -477 0
494 485 0
494 7 0
-494 -485 -7 0
-495 485 0
-495 51 0
495 -485 -51 0
-496 482 0
-496 441 0
496 -482 -441 0
-497 485 0
-497 450 0
497 -485 -450 0
498 471 0
-498 -471 0
-499 485 0
-499 54 0
499 -485 -54 0
500 498 0
-500 -498 0
-662 145 0
-662 491 0
662 -145 -491 0
-501 662 0
-501 3 0
501 -662 -3 0
-663 485 0
-663 219 0
663 -485 -219 0
-502 663 0
-502 92 0
502 -663 -92 0
-664 485 0
-664 386 0
664 -485 -386 0
-503 664 0
-503 3 0
503 -664 -3 0
-665 485 0
-665 258 0
665 -485 -258 0
-504 665 0
-504 1 0
504 -665 -1 0
-505 394 0
-505 482 0
505 -394 -482 0
506 -365 0
506 -486 0
-506 365 486 0
-666 485 0
-666 331 0
666 -485 -331 0
-507 666 0
-507 6 0
507 -666 -6 0
-667 485 0
-667 229 0
667 -485 -229 0
-508 667 0
-508 99 0
508 -667 -99 0
-509 -185 0
-509 -493 0
509 185 493 0
510 -497 0
510 -289 0
-510 497 289 0
511 -370 0
511 -499 0
-511 370 499 0
668 -212 0
668 -447 0
-668 212 447 0
669 -668 0
669 -466 0
-669 668 466 0
512 -669 0
512 -502 0
-512 669 502 0
513 -505 0
513 -503 0
-513 505 503 0
-670 24 0
-670 509 0
670 -24 -509 0
-514 670 0
-514 23 0
514 -670 -23 0
671 -465 0
671 -495 0
-671 465 495 0
515 -671 0
515 -448 0
-515 671 448 0
-516 509 0
-516 376 0
516 -509 -376 0
-517 104 0
-517 494 0
517 -104 -494 0
518 -446 0
518 -500 0
-518 446 500 0
519 506 0
-519 -506 0
520 506 0
-520 -506 0
521 439 0
521 506 0
-521 -439 -506 0
522 -494 0
522 -304 0
-522 494 304 0
-523 -519 0
-523 -48 0
523 519 48 0
672 -213 0
672 -489 0
-672 213 489 0
673 -672 0
673 -463 0
-673 672 463 0
524 -673 0
524 -501 0
-524 673 501 0
525 523 0
-525 -523 0
-526 439 0
-526 520 0
526 -439 -520 0
-527 145 0
-527 518 0
527 -145 -518 0
674 -527 0
674 -507 0
-674 527 507 0
528 -674 0
528 -464 0
-528 674 464 0
529 525 0
-529 -525 0
530 529 0
-530 -529 0
531 -249 0
531 -517 0
-531 249 517 0
532 523 0
-532 -523 0
-676 521 0
-676 493 0
676 -521 -493 0
-675 676 0
-675 492 0
675 -676 -492 0
533 675 0
-533 -675 0
677 -526 0
677 -490 0
-677 526 490 0
534 -677 0
534 -474 0
-534 677 474 0
535 531 0
-535 -531 0
536 532 0
-536 -532 0
-678 340 0
-678 529 0
678 -340 -529 0
-537 678 0
-537 186 0
537 -678 -186 0
680 -535 0
680 -354 0
-680 535 354 0
679 -680 0
679 -508 0
-679 680 508 0
538 679 0
-538 -679 0
539 -487 0
539 -536 0
-539 487 536 0
540 530 0
-540 -530 0
-541 398 0
-541 529 0
541 -398 -529 0
-682 531 0
-682 522 0
682 -531 -522 0
-681 682 0
-681 236 0
681 -682 -236 0
542 681 0
-542 -681 0
543 -475 0
543 -540 0
-543 475 540 0
-683 61 0
-683 414 0
683 -61 -414 0
-544 683 0
-544 539 0
544 -683 -539 0
-545 397 0
-545 539 0
545 -397 -539 0
-546 311 0
-546 543 0
546 -311 -543 0
-684 400 0
-684 539 0
684 -400 -539 0
-547 684 0
-547 9 0
547 -684 -9 0
685 -476 0
685 -449 0
-685 476 449 0
686 -685 0
686 -546 0
-686 685 546 0
548 -686 0
548 -544 0
-548 686 544 0
549 -545 0
549 -537 0
-549 545 537 0
550 -541 0
550 -547 0
-550 541 547 0
-551 550 0
-551 47 0
551 -550 -47 0
-552 548 0
-552 47 0
552 -548 -47 0
-687 61 0
-687 549 0
687 -61 -549 0
-553 687 0
-553 47 0
553 -687 -47 0
554 -516 0
554 -551 0
-554 516 551 0
555 -553 0
555 -514 0
-555 553 514 0
-556 64 0
-556 554 0
556 -64 -554 0
557 -496 0
557 -556 0
-557 496 556 0
558 -552 0
558 -504 0
-558 552 504 0
559 555 0
-559 -555 0
560 559 0
-560 -559 0
561 -488 0
561 -560 0
-561 488 560 0
-688 538 434 0
-688 -538 -434 0
688 -538 434 0
688 538 -434 0
-689 688 542 0
-689 -688 -542 0
689 -688 542 0
689 688 -542 0
-690 689 425 0
-690 -689 -425 0
690 -689 425 0
690 689 -425 0
-691 690 251 0
-691 -690 -251 0
691 -690 251 0
691 690 -251 0
-692 691 126 0
-692 -691 -126 0
692 -691 126 0
692 691 -126 0
-693 692 511 0
-693 -692 -511 0
693 -692 511 0
693 692 -511 0
693 0
-694 538 434 0
-694 -538 -434 0
694 -538 434 0
694 538 -434 0
-695 694 542 0
-695 -694 -542 0
695 -694 542 0
695 694 -542 0
-696 695 425 0
-696 -695 -425 0
696 -695 425 0
696 695 -425 0
-697 696 251 0
-697 -696 -251 0
697 -696 251 0
697 696 -251 0
-698 697 126 0
-698 -697 -126 0
698 -697 126 0
698 697 -126 0
-699 698 511 0
-699 -698 -511 0
699 -698 511 0
699 698 -511 0
699 0
-700 538 434 0
-700 -538 -434 0
700 -538 434 0
700 538 -434 0
-701 700 542 0
-701 -700 -542 0
701 -700 542 0
701 700 -542 0
-702 701 425 0
-702 -701 -425 0
702 -701 425 0
702 701 -425 0
-703 702 251 0
-703 -702 -251 0
703 -702 251 0
703 702 -251 0
-704 703 126 0
-704 -703 -126 0
704 -703 126 0
704 703 -126 0
-705 704 511 0
-705 -704 -511 0
705 -704 511 0
705 704 -511 0
705 0
-706 538 434 0
-706 -538 -434 0
706 -538 434 0
706 538 -434 0
-707 706 542 0
-707 -706 -542 0
707 -706 542 0
707 706 -542 0
-708 707 425 0
-708 -707 -425 0
708 -707 425 0
708 707 -425 0
-709 708 251 0
-709 -708 -251 0
709 -708 251 0
709 708 -251 0
-710 709 126 0
-710 -709 -126 0
710 -709 126 0
710 709 -126 0
-711 710 511 0
-711 -710 -511 0
711 -710 511 0
711 710 -511 0
711 0
-712 538 434 0
-712 -538 -434 0
712 -538 434 0
712 538 -434 0
-713 712 542 0
-713 -712 -542 0
713 -712 542 0
713 712 -542 0
-714 713 425 0
-714 -713 -425 0
714 -713 425 0
714 713 -425 0
-715 714 251 0
-715 -714 -251 0
715 -714 251 0
715 714 -251 0
-716 715 126 0
-716 -715 -126 0
716 -715 126 0
716 715 -126 0
-717 716 511 0
-717 -716 -511 0
717 -716 511 0
717 716 -511 0
717 0
-718 538 434 0
-718 -538 -434 0
718 -538 434 0
718 538 -434 0
-719 718 542 0
-719 -718 -542 0
719 -718 542 0
719 718 -542 0
-720 719 425 0
-720 -719 -425 0
720 -719 425 0
720 719 -425 0
-721 720 251 0
-721 -720 -251 0
721 -720 251 0
721 720 -251 0
-722 721 126 0
-722 -721 -126 0
722 -721 126 0
722 721 -126 0
-723 722 511 0
-723 -722 -511 0
723 -722 511 0
723 722 -511 0
723 0
-724 538 434 0
-724 -538 -434 0
724 -538 434 0
724 538 -434 0
-725 724 542 0
-725 -724 -542 0
725 -724 542 0
725 724 -542 0
-726 725 425 0
-726 -725 -425 0
726 -725 425 0
726 725 -425 0
-727 726 251 0
-727 -726 -251 0
727 -726 251 0
727 726 -251 0
-728 727 126 0
-728 -727 -126 0
728 -727 126 0
728 727 -126 0
-729 728 511 0
-729 -728 -511 0
729 -728 511 0
729 728 -511 0
729 0
-730 538 434 0
-730 -538 -434 0
730 -538 434 0
730 538 -434 0
-731 730 542 0
-731 -730 -542 0
731 -730 542 0
731 730 -542 0
-732 731 425 0
-732 -731 -425 0
732 -731 425 0
732 731 -425 0
-733 732 251 0
-733 -732 -251 0
733 -732 251 0
733 732 -251 0
-734 733 126 0
-734 -733 -126 0
734 -733 126 0
734 733 -126 0
-735 734 511 0
-735 -734 -511 0
735 -734 511 0
735 734 -511 0
735 0
-736 538 434 0
-736 -538 -434 0
736 -538 434 0
736 538 -434 0
-737 736 542 0
-737 -736 -542 0
737 -736 542 0
737 736 -542 0
-738 737 425 0
-738 -737 -425 0
738 -737 425 0
738 737 -425 0
-739 738 251 0
-739 -738 -251 0
739 -738 251 0
739 738 -251 0
-740 739 126 0
-740 -739 -126 0
740 -739 126 0
740 739 -126 0
-741 740 511 0
-741 -740 -511 0
741 -740 511 0
741 740 -511 0
741 0
-742 538 434 0
-742 -538 -434 0
742 -538 434 0
742 538 -434 0
-743 742 542 0
-743 -742 -542 0
743 -742 542 0
743 742 -542 0
-744 743 425 0
-744 -743 -425 0
744 -743 425 0
744 743 -425 0
-745 744 251 0
-745 -744 -251 0
745 -744 251 0
745 744 -251 0
-746 745 126 0
-746 -745 -126 0
746 -745 126 0
746 745 -126 0
-747 746 511 0
-747 -746 -511 0
747 -746 511 0
747 746 -511 0
747 0
-748 538 434 0
-748 -538 -434 0
748 -538 434 0
748 538 -434 0
-749 748 542 0
-749 -748 -542 0
749 -748 542 0
749 748 -542 0
-750 749 425 0
-750 -749 -425 0
750 -749 425 0
750 749 -425 0
-751 750 251 0
-751 -750 -251 0
751 -750 251 0
751 750 -251 0
-752 751 126 0
-752 -751 -126 0
752 -751 126 0
752 751 -126 0
-753 752 511 0
-753 -752 -511 0
753 -752 511 0
753 752 -511 0
753 0
-754 538 434 0
-754 -538 -434 0
754 -538 434 0
754 538 -434 0
-755 754 542 0
-755 -754 -542 0
755 -754 542 0
755 754 -542 0
-756 755 425 0
-756 -755 -425 0
756 -755 425 0
756 755 -425 0
-757 756 251 0
-757 -756 -251 0
757 -756 251 0
757 756 -251 0
-758 757 126 0
-758 -757 -126 0
758 -757 126 0
758 757 -126 0
-759 758 511 0
-759 -758 -511 0
759 -758 511 0
759 758 -511 0
759 0
-760 538 434 0
-760 -538 -434 0
760 -538 434 0
760 538 -434 0
-761 760 542 0
-761 -760 -542 0
761 -760 542 0
761 760 -542 0
-762 761 425 0
-762 -761 -425 0
762 -761 425 0
762 761 -425 0
-763 762 251 0
-763 -762 -251 0
763 -762 251 0
763 762 -251 0
-764 763 126 0
-764 -763 -126 0
764 -763 126 0
764 763 -126 0
-765 764 511 0
-765 -764 -511 0
765 -764 511 0
765 764 -511 0
765 0
-766 538 434 0
-766 -538 -434 0
766 -538 434 0
766 538 -434 0
-767 766 542 0
-767 -766 -542 0
767 -766 542 0
767 766 -542 0
-768 767 425 0
-768 -767 -425 0
768 -767 425 0
768 767 -425 0
-769 768 251 0
-769 -768 -251 0
769 -768 251 0
769 768 -251 0
-770 769 126 0
-770 -769 -126 0
770 -769 126 0
770 769 -126 0
-771 770 511 0
-771 -770 -511 0
771 -770 511 0
771 770 -511 0
771 0
-772 538 434 0
-772 -538 -434 0
772 -538 434 0
772 538 -434 0
-773 772 542 0
-773 -772 -542 0
773 -772 542 0
773 772 -542 0
-774 773 425 0
-774 -773 -425 0
774 -773 425 0
774 773 -425 0
-775 774 251 0
-775 -774 -251 0
775 -774 251 0
775 774 -251 0
-776 775 126 0
-776 -775 -126 0
776 -775 126 0
776 775 -126 0
-777 776 511 0
-777 -776 -511 0
777 -776 511 0
777 776 -511 0
777 0
